Set parameter Username
Set parameter LogFile to value "gurobi.log"
Academic license - for non-commercial use only - expires 2024-05-02
Using license file /Users/sissi/gurobi.lic

Gurobi Optimizer version 10.0.1 build v10.0.1rc0 (mac64[arm])
Copyright (c) 2023, Gurobi Optimization, LLC

Read OPB format model from file pbo/p_pbo_0_3472.opb
Reading time = 0.01 seconds
(null): 2005 rows, 1057 columns, 5973 nonzeros

CPU model: Apple M2
Thread count: 8 physical cores, 8 logical processors, using up to 8 threads

Optimize a model with 2005 rows, 1057 columns and 5973 nonzeros
Model fingerprint: 0x0cc58ff2
Variable types: 0 continuous, 1057 integer (1057 binary)
Coefficient statistics:
  Matrix range     [1e+00, 1e+00]
  Objective range  [1e+00, 4e+00]
  Bounds range     [1e+00, 1e+00]
  RHS range        [1e+00, 1e+00]
Found heuristic solution: objective -360.0000000
Presolve removed 1001 rows and 511 columns
Presolve time: 0.00s
Presolved: 1004 rows, 546 columns, 3012 nonzeros
Variable types: 0 continuous, 546 integer (546 binary)

Root relaxation: objective -6.150000e+02, 124 iterations, 0.00 seconds (0.00 work units)

    Nodes    |    Current Node    |     Objective Bounds      |     Work
 Expl Unexpl |  Obj  Depth IntInf | Incumbent    BestBd   Gap | It/Node Time

     0     0 -615.00000    0   44 -360.00000 -615.00000  70.8%     -    0s
H    0     0                    -374.0000000 -429.23682  14.8%     -    0s
     0     0 -429.23682    0  537 -374.00000 -429.23682  14.8%     -    0s
     0     0 -407.34510    0  542 -374.00000 -407.34510  8.92%     -    1s
     0     0 -405.13007    0  539 -374.00000 -405.13007  8.32%     -    1s
     0     0 -404.59504    0  541 -374.00000 -404.59504  8.18%     -    1s
     0     0 -404.32049    0  539 -374.00000 -404.32049  8.11%     -    1s
     0     0 -404.26079    0  540 -374.00000 -404.26079  8.09%     -    1s
H    0     0                    -379.0000000 -398.13627  5.05%     -    1s
     0     0 -398.13627    0  542 -379.00000 -398.13627  5.05%     -    1s
H    0     0                    -395.0000000 -397.19625  0.56%     -    1s
     0     0 -397.19625    0  544 -395.00000 -397.19625  0.56%     -    1s
     0     0 -396.87978    0  542 -395.00000 -396.87978  0.48%     -    1s
     0     0 -396.76812    0  541 -395.00000 -396.76812  0.45%     -    1s
     0     0     cutoff    0      -395.00000 -395.00000  0.00%     -    1s

Cutting planes:
  MIR: 116
  RLT: 225

Explored 1 nodes (6965 simplex iterations) in 1.85 seconds (1.28 work units)
Thread count was 8 (of 8 available processors)

Solution count 4: -395 -379 -374 -360 
No other solutions better than -395

Optimal solution found (tolerance 1.00e-04)
Best objective -3.950000000000e+02, best bound -3.950000000000e+02, gap 0.0000%

Wrote result file 'solution/p_0_3472.sol'

